Minimize
 obj: 0 X_0_1
Subject To
 out_0:
  + 1 X_0_1 + 1 X_0_2 + 1 X_0_3 + 1 X_0_4
  = 1
 in_0:
  + 1 X_1_0 + 1 X_2_0 + 1 X_3_0 + 1 X_4_0
  = 1
 out_1:
  + 1 X_1_0 + 1 X_1_2 + 1 X_1_3 + 1 X_1_4
  = 1
 in_1:
  + 1 X_0_1 + 1 X_2_1 + 1 X_3_1 + 1 X_4_1
  = 1
 out_2:
  + 1 X_2_0 + 1 X_2_1 + 1 X_2_3 + 1 X_2_4
  = 1
 in_2:
  + 1 X_0_2 + 1 X_1_2 + 1 X_3_2 + 1 X_4_2
  = 1
 out_3:
  + 1 X_3_0 + 1 X_3_1 + 1 X_3_2 + 1 X_3_4
  = 1
 in_3:
  + 1 X_0_3 + 1 X_1_3 + 1 X_2_3 + 1 X_4_3
  = 1
 out_4:
  + 1 X_4_0 + 1 X_4_1 + 1 X_4_2 + 1 X_4_3
  = 1
 in_4:
  + 1 X_0_4 + 1 X_1_4 + 1 X_2_4 + 1 X_3_4
  = 1
 mtz_1_2:
  + 1 U1 - 1 U2 + 4 X_1_2
  <= 3
 mtz_1_3:
  + 1 U1 - 1 U3 + 4 X_1_3
  <= 3
 mtz_1_4:
  + 1 U1 - 1 U4 + 4 X_1_4
  <= 3
 mtz_2_1:
  + 1 U2 - 1 U1 + 4 X_2_1
  <= 3
 mtz_2_3:
  + 1 U2 - 1 U3 + 4 X_2_3
  <= 3
 mtz_2_4:
  + 1 U2 - 1 U4 + 4 X_2_4
  <= 3
 mtz_3_1:
  + 1 U3 - 1 U1 + 4 X_3_1
  <= 3
 mtz_3_2:
  + 1 U3 - 1 U2 + 4 X_3_2
  <= 3
 mtz_3_4:
  + 1 U3 - 1 U4 + 4 X_3_4
  <= 3
 mtz_4_1:
  + 1 U4 - 1 U1 + 4 X_4_1
  <= 3
 mtz_4_2:
  + 1 U4 - 1 U2 + 4 X_4_2
  <= 3
 mtz_4_3:
  + 1 U4 - 1 U3 + 4 X_4_3
  <= 3
 obj1:
  + 895 X_0_1 + 474 X_0_2 + 565 X_0_3 + 423 X_0_4 + 895 X_1_0 + 673 X_1_2 + 992 X_1_3 + 953 X_1_4
  + 474 X_2_0 + 673 X_2_1 + 943 X_2_3 + 821 X_2_4 + 565 X_3_0 + 992 X_3_1 + 943 X_3_2 + 143 X_3_4
  + 423 X_4_0 + 953 X_4_1 + 821 X_4_2 + 143 X_4_3
  <= 1
 obj2:
  + 586 X_0_1 + 229 X_0_2 + 725 X_0_3 + 355 X_0_4 + 586 X_1_0 + 602 X_1_2 + 575 X_1_3 + 491 X_1_4
  + 229 X_2_0 + 602 X_2_1 + 898 X_2_3 + 179 X_2_4 + 725 X_3_0 + 575 X_3_1 + 898 X_3_2 + 897 X_3_4
  + 355 X_4_0 + 491 X_4_1 + 179 X_4_2 + 897 X_4_3
  <= 2
 obj3:
  + 385 X_0_1 + 228 X_0_2 + 498 X_0_3 + 91 X_0_4 + 385 X_1_0 + 605 X_1_2 + 715 X_1_3 + 427 X_1_4
  + 228 X_2_0 + 605 X_2_1 + 556 X_2_3 + 243 X_2_4 + 498 X_3_0 + 715 X_3_1 + 556 X_3_2 + 407 X_3_4
  + 91 X_4_0 + 427 X_4_1 + 243 X_4_2 + 407 X_4_3
  <= 3
 obj4:
  + 882 X_0_1 + 851 X_0_2 + 600 X_0_3 + 741 X_0_4 + 882 X_1_0 + 209 X_1_2 + 322 X_1_3 + 203 X_1_4
  + 851 X_2_0 + 209 X_2_1 + 407 X_2_3 + 119 X_2_4 + 600 X_3_0 + 322 X_3_1 + 407 X_3_2 + 296 X_3_4
  + 741 X_4_0 + 203 X_4_1 + 119 X_4_2 + 296 X_4_3
  <= 4
Bounds
 1 <= U1 <= 4
 1 <= U2 <= 4
 1 <= U3 <= 4
 1 <= U4 <= 4
Binary
 X_0_1
 X_0_2
 X_0_3
 X_0_4
 X_1_0
 X_1_2
 X_1_3
 X_1_4
 X_2_0
 X_2_1
 X_2_3
 X_2_4
 X_3_0
 X_3_1
 X_3_2
 X_3_4
 X_4_0
 X_4_1
 X_4_2
 X_4_3
End
